WARNING: for repeatability, setting FPU to use double precision
============================[ Problem Statistics ]=============================
|                                                                             |
|  Number of variables:            50                                         |
|  Number of clauses:             218                                         |
|  Parse time:                   0.00 s                                       |
|                                                                             |
============================[ Search Statistics ]==============================
| Conflicts |          ORIGINAL         |          LEARNT          | Progress |
|           |    Vars  Clauses Literals |    Limit  Clauses Lit/Cl |          |
===============================================================================
===============================================================================
restarts              : 1
conflicts             : 44             (30964 /sec)
decisions             : 52             (0.00 % random) (36594 /sec)
propagations          : 560            (394089 /sec)
conflict literals     : 127            (21.12 % deleted)
Memory used           : 20.00 MB
CPU time              : 0.001421 s

UNSATISFIABLE
